NAME : morphed21-5-6
COMMENT : Generated using the function morphInstances from the R-package netgen (Bossek,2015) - Number of clusters: 5 Alpha: 0.5
TYPE : TSP
DIMENSION : 21
EDGE_WEIGHT_TYPE : EUC_2D
NODE_COORD_SECTION
1 50.1976593702 76.1831321478
2 95.0857138984 6.7684110738
3 17.0905239509 30.7141200936
4 35.5166528802 72.332427978
5 83.6234982746 23.4895790038
6 97.1679488167 23.4517511858
7 66.1224735563 93.3628483765
8 74.3991926391 26.9714960238
9 59.4433187552 35.6442539931
10 4.9470636305 46.8656281022
11 80.7251831638 6.3681482825
12 68.5054381639 97.3840043588
13 9.0436110611 61.3682137096
14 42.8227700443 19.2267728366
15 54.0204545306 95.5715646304
16 17.8302575171 41.4421816668
17 53.9911432971 13.6920578243
18 58.8185772155 98.7869489834
19 23.6329001764 70.9634926291
20 54.0368703629 69.0786946334
21 93.4801667664 45.5322858093
EOF
